p td 20 60
0 1
0 2
0 18
0 3
0 17
0 4
1 2
1 19
1 18
1 10
1 7
1 15
1 16
2 13
2 7
2 14
3 4
3 5
3 15
4 6
4 7
5 6
5 9
5 18
6 8
6 9
6 16
7 9
7 10
7 16
7 14
8 10
8 18
8 12
8 14
9 10
9 11
9 12
10 15
10 14
11 12
11 13
11 14
11 15
12 19
12 14
13 14
13 16
13 17
14 16
14 17
14 19
15 16
15 18
15 19
16 17
16 18
17 18
17 19
18 19
